
Gurobi 10.0.0 (linux64) logging started Fri Nov 25 09:37:35 2022

Set parameter LogFile to value "../results/k03_n050_d015/k03_n080_d019_GEOM80a_A-MILO_log.txt"
Gurobi Optimizer version 10.0.0 build v10.0.0rc2 (linux64)

CPU model: Intel(R) Xeon(R) CPU E5-2630 v4 @ 2.20GHz, instruction set [SSE2|AVX|AVX2]
Thread count: 20 physical cores, 40 logical processors, using up to 10 threads

Optimize a model with 5588 rows, 852 columns and 16764 nonzeros
Model fingerprint: 0xa054eeb4
Coefficient statistics:
  Matrix range     [1e+00, 1e+00]
  Objective range  [1e+00, 9e+00]
  Bounds range     [1e+00, 1e+00]
  RHS range        [1e+00, 2e+00]
Presolve removed 162 rows and 26 columns
Presolve time: 0.01s
Presolved: 5426 rows, 826 columns, 16232 nonzeros

Iteration    Objective       Primal Inf.    Dual Inf.      Time
       0    1.2500000e+02   3.198000e+03   0.000000e+00      0s
     589    3.3230000e+03   0.000000e+00   0.000000e+00      0s

Use crossover to convert LP symmetric solution to basic solution...
Crossover log...

      79 PPushes remaining with PInf 0.0000000e+00                 0s
       0 PPushes remaining with PInf 0.0000000e+00                 0s

  Push phase complete: Pinf 0.0000000e+00, Dinf 0.0000000e+00      0s

Iteration    Objective       Primal Inf.    Dual Inf.      Time
     671    3.3230000e+03   0.000000e+00   0.000000e+00      0s

Solved in 671 iterations and 0.03 seconds (0.02 work units)
Optimal objective  3.323000000e+03
